-1 8 7 9 2 2 6 4 1 4 6 9 6 1 -1 
-1 9 0 -1 0 5 1 9 9 0 7 7 2 8 -1 
-1 6 5 3 6 3 -1 7 3 0 5 0 2 0 -1 
9 8 8 0 6 6 8 3 3 2 5 6 6 1 -1 
4 7 3 6 1 4 9 1 6 0 8 5 1 4 -1 
0 1 2 1 -1 3 3 5 2 4 1 3 5 5 -1 
4 2 8 8 -1 0 7 1 0 0 -1 9 2 -1 -1 
5 8 3 9 -1 3 9 7 5 9 2 -1 7 3 -1 
2 6 7 0 7 6 7 5 8 2 1 3 2 0 -1 
7 8 5 4 6 0 1 9 4 8 2 1 6 2 -1 
-1 9 3 0 5 1 5 1 6 9 9 5 0 5 -1 
0 2 7 4 7 6 1 5 7 2 2 9 4 4 -1 
1 3 8 2 9 4 3 3 2 -1 0 5 8 -1 -1 
9 1 1 9 4 3 6 9 0 5 3 1 9 1 -1 
6 0 1 9 9 3 1 8 6 1 7 3 3 -1 -1 
